BEGIN IONS
PEPMASS=898.727
CHARGE=0
MSLEVEL=2
SOURCE_INSTRUMENT=DI-ESI-Orbitrap
FILENAME=f.pphapale/EMBL_MCF/1,2-Dierucoyl-sn-glycero-3-phosphocholine2.mzXML;
SEQ=*..*
IONMODE=n/a
ORGANISM=GNPS-EMBL-MCF
NAME=1,2-Dierucoyl-sn-glycero-3-phosphocholine M+H
PI=Alexandrov Theodore
DATACOLLECTOR=Prasad
SMILES= 
INCHI=InChI=1S/C26H52NO7P/c1-5-6-7-8-9-10-11-12-13-14-15-16-17-18-19-20-26(29)32-23-25(28)24-34-35(30,31)33-22-21-27(2,3)4/h12-13,25,28H,5-11,14-24H2,1-4H3/b13-12-/t25-/m1/s1
INCHIAUX= 
PUBMED=16081932
SUBMITUSER=pphapale
TAGS=
LIBRARYQUALITY=3
SPECTRUMID=CCMSLIB00000479320
SCANS=1
66.137428	428881.90625
110.0	30000000
220.0	30000000
330.0	30000000
866.950623	455642.8125
END IONS